SCIP Status        : solving was interrupted [time limit reached]
Total Time         :    3600.02
  solving          :    3600.00
  presolving       :       0.16 (included in solving)
  reading          :       0.02
  copying          :       0.36 (26 #copies) (minimal 0.00, maximal 0.02, average 0.01)
Original Problem   :
  Problem name     : benchmark/normal_50_20_20.design
  Variables        : 3271 (50 binary, 0 integer, 0 implicit integer, 3221 continuous)
  Constraints      : 4453 initial, 4453 maximal
  Objective        : minimize, 1 non-zeros (abs.min = 1, abs.max = 1)
Presolved Problem  :
  Problem name     : t_benchmark/normal_50_20_20.design
  Variables        : 4693 (50 binary, 0 integer, 0 implicit integer, 4643 continuous)
  Constraints      : 4453 initial, 4466 maximal
  Objective        : minimize, 1 non-zeros (abs.min = 1, abs.max = 1)
  Nonzeros         : 23682 constraint, 0 clique table
Presolvers         :   ExecTime  SetupTime  Calls  FixedVars   AggrVars   ChgTypes  ChgBounds   AddHoles    DelCons    AddCons   ChgSides   ChgCoefs
  boundshift       :       0.00       0.00      0          0          0          0          0          0          0          0          0          0
  convertinttobin  :       0.00       0.00      0          0          0          0          0          0          0          0          0          0
  domcol           :       0.00       0.00      1          0          0          0          0          0          0          0          0          0
  dualagg          :       0.00       0.00      0          0          0          0          0          0          0          0          0          0
  dualcomp         :       0.00       0.00      1          0          0          0          0          0          0          0          0          0
  dualinfer        :       0.00       0.00      0          0          0          0          0          0          0          0          0          0
  dualsparsify     :       0.00       0.00      1          0          0          0          0          0          0          0          0          0
  gateextraction   :       0.00       0.00      0          0          0          0          0          0          0          0          0          0
  implics          :       0.00       0.00      1          0          0          0          0          0          0          0          0          0
  inttobinary      :       0.00       0.00      0          0          0          0          0          0          0          0          0          0
  qpkktref         :       0.00       0.00      0          0          0          0          0          0          0          0          0          0
  redvub           :       0.00       0.00      0          0          0          0          0          0          0          0          0          0
  sparsify         :       0.00       0.00      1          0          0          0          0          0          0          0          0          0
  stuffing         :       0.00       0.00      0          0          0          0          0          0          0          0          0          0
  trivial          :       0.00       0.00      2        190          0          0          0          0          0          0          0          0
  tworowbnd        :       0.00       0.00      0          0          0          0          0          0          0          0          0          0
  dualfix          :       0.00       0.00      2        190          0          0          0          0          0          0          0          0
  genvbounds       :       0.00       0.00      0          0          0          0          0          0          0          0          0          0
  probing          :       0.03       0.00      1          0          0          0          0          0          0          0          0          0
  pseudoobj        :       0.00       0.00      0          0          0          0          0          0          0          0          0          0
  symmetry         :       0.01       0.00      1          0          0          0          0          0          0          0          0          0
  vbounds          :       0.00       0.00      0          0          0          0          0          0          0          0          0          0
  linear           :       0.01       0.00      3          0          0          0          0          0          0          0          0          0
  nonlinear        :       0.08       0.01      4          0          0          0        400          0          0          0          0          0
  benders          :       0.00       0.00      0          0          0          0          0          0          0          0          0          0
  components       :       0.01       0.00      1          0          0          0          0          0          0          0          0          0
  root node        :          -          -      -          0          -          -       9252          -          -          -          -          -
Constraints        :     Number  MaxNumber  #Separate #Propagate    #EnfoLP    #EnfoRelax  #EnfoPS    #Check   #ResProp    Cutoffs    DomReds       Cuts    Applied      Conss   Children
  benderslp        :          0          0          0          0      18199          0          0       2578          0          0          0          0          0          0          0
  integral         :          0          0          0          0      18199          0          0       2578          0          0       9586          0          0          0      21120
  linear           :       3052+      3065         18     247499          4          0          0       2572          0        452   10710008          0          0          0          0
  nonlinear        :       1401       1401      48425     247047       7538          0          0       1936          0       1236   16220598     860933     844496          0          0
  benders          :          0          0          0          0          4          0          0          4          0          0          0          0          0          0          0
  countsols        :          0          0          0          0          4          0          0          4          0          0          0          0          0          0          0
  components       :          0          0          0          0          0          0          0          0          0          0          0          0          0          0          0
Constraint Timings :  TotalTime  SetupTime   Separate  Propagate     EnfoLP     EnfoPS     EnfoRelax   Check    ResProp    SB-Prop
  benderslp        :       0.02       0.00       0.00       0.00       0.02       0.00       0.00       0.00       0.00       0.00
  integral         :      38.09       0.00       0.00       0.00      38.09       0.00       0.00       0.00       0.00       0.00
  linear           :      52.70       0.00       0.00      52.09       0.00       0.00       0.00       0.39       0.00       0.22
  nonlinear        :     352.70       0.01     143.12     185.14      20.69       0.00       0.00       2.85       0.00       0.89
  benders          :       0.00       0.00       0.00       0.00       0.00       0.00       0.00       0.00       0.00       0.00
  countsols        :       0.00       0.00       0.00       0.00       0.00       0.00       0.00       0.00       0.00       0.00
  components       :       0.01       0.00       0.00       0.01       0.00       0.00       0.00       0.00       0.00       0.00
Propagators        : #Propagate   #ResProp    Cutoffs    DomReds
  dualfix          :          2          0          0          0
  genvbounds       :          0          0          0          0
  nlobbt           :          0          0          0          0
  obbt             :          0          0          0          0
  probing          :          0          0          0          0
  pseudoobj        :     120862          0          0         18
  redcost          :      56979          0          0        462
  rootredcost      :          7          0          0       7833
  symmetry         :          0          0          0          0
  vbounds          :      30614          0          0          0
Propagator Timings :  TotalTime  SetupTime   Presolve  Propagate    ResProp    SB-Prop
  dualfix          :       0.00       0.00       0.00       0.00       0.00       0.00
  genvbounds       :       0.14       0.00       0.00       0.14       0.00       0.00
  nlobbt           :       0.00       0.00       0.00       0.00       0.00       0.00
  obbt             :       0.01       0.00       0.00       0.01       0.00       0.00
  probing          :       0.03       0.00       0.03       0.00       0.00       0.00
  pseudoobj        :       0.25       0.00       0.00       0.24       0.00       0.01
  redcost          :       3.22       0.00       0.00       3.22       0.00       0.00
  rootredcost      :       0.12       0.00       0.00       0.12       0.00       0.00
  symmetry         :       0.15       0.00       0.01       0.14       0.00       0.00
  vbounds          :       0.22       0.00       0.00       0.21       0.00       0.01
Conflict Analysis  :       Time      Calls    Success    DomReds  Conflicts   Literals    Reconvs ReconvLits   Dualrays   Nonzeros   LP Iters   (pool size: [--,--])
  propagation      :       0.00          0          0          -          0        0.0          0        0.0          -          -          -
  infeasible LP    :       0.00          1          0          -          0        0.0          0        0.0        181      241.4          0
  bound exceed. LP :      18.39       4630        181          -          0        0.0          0        0.0          0        0.0      37499
  strong branching :       0.00          0          0          -          0        0.0          0        0.0          -          -          0
  pseudo solution  :       0.00          0          0          -          0        0.0          0        0.0          -          -          -
  applied globally :       0.00          -          -          0          0        0.0          -          -        181          -          -
  applied locally  :          -          -          -          0          0        0.0          -          -          0          -          -
Separators         :   ExecTime  SetupTime      Calls  RootCalls    Cutoffs    DomReds  FoundCuts ViaPoolAdd  DirectAdd    Applied ViaPoolApp  DirectApp      Conss
  cut pool         :       0.00          -          0          0          -          -          0          0          -          -          -          -          -    (maximal pool size:          0)
  aggregation      :       2.12       0.00        734         18          0          0          0          0          0          0          0          0          0
  > cmir           :          -          -          -          -          -          -          -          0          0          0          0          0          -
  > flowcover      :          -          -          -          -          -          -          -          0          0          0          0          0          -
  > knapsackcover  :          -          -          -          -          -          -          -          0          0          0          0          0          -
  cgmip            :       0.00       0.00          0          0          0          0          0          0          0          0          0          0          0
  clique           :       0.00       0.00          1          1          0          0          0          0          0          0          0          0          0
  closecuts        :       0.00       0.00          0          0          0          0          0          0          0          0          0          0          0
  convexproj       :       0.00       0.00          0          0          0          0          0          0          0          0          0          0          0
  disjunctive      :       0.00       0.00          0          0          0          0          0          0          0          0          0          0          0
  eccuts           :       0.00       0.00          0          0          0          0          0          0          0          0          0          0          0
  gauge            :       0.00       0.00          0          0          0          0          0          0          0          0          0          0          0
  gomory           :       2.32       0.00        724         10          0          0          0          0          0          0          0          0          0
  > gomorymi       :          -          -          -          -          -          -          -          0          0          0          0          0          -
  > strongcg       :          -          -          -          -          -          -          -          0          0          0          0          0          -
  impliedbounds    :       0.10       0.00        734         18          0          0          0          0          0          0          0          0          0
  interminor       :       0.00       0.00          0          0          0          0          0          0          0          0          0          0          0
  intobj           :       0.00       0.00          0          0          0          0          0          0          0          0          0          0          0
  mcf              :       0.00       0.00          2          2          0          0          0          0          0          0          0          0          0
  minor            :       0.01       0.00          0          0          0          0          0          0          0          0          0          0          0
  mixing           :       0.01       0.00        734         18          0          0          0          0          0          0          0          0          0
  oddcycle         :       0.00       0.00          0          0          0          0          0          0          0          0          0          0          0
  rapidlearning    :       0.01       0.00          0          0          0          0          0          0          0          0          0          0          0
  rlt              :       0.02       0.00         10         10          0          0          0          0          0          0          0          0          0
  zerohalf         :       0.67       0.00        732         18          0          0          0          0          0          0          0          0          0
Cutselectors       :   ExecTime  SetupTime      Calls  RootCalls   Selected     Forced   Filtered  RootSelec   RootForc   RootFilt 
  hybrid           :       0.64       0.00      48191         17     671195          0      16343       5462          0          2
Pricers            :   ExecTime  SetupTime      Calls       Vars
  problem variables:       0.00          -          0          0
Branching Rules    :   ExecTime  SetupTime   BranchLP  BranchExt   BranchPS    Cutoffs    DomReds       Cuts      Conss   Children
  allfullstrong    :       0.00       0.00          0          0          0          0          0          0          0          0
  cloud            :       0.00       0.00          0          0          0          0          0          0          0          0
  distribution     :       0.00       0.00          0          0          0          0          0          0          0          0
  fullstrong       :       0.00       0.00          0          0          0          0          0          0          0          0
  inference        :       0.00       0.00          0          0          0          0          0          0          0          0
  leastinf         :       0.00       0.00          0          0          0          0          0          0          0          0
  lookahead        :       0.00       0.00          0          0          0          0          0          0          0          0
  mostinf          :       0.00       0.00          0          0          0          0          0          0          0          0
  multaggr         :       0.00       0.00          0          0          0          0          0          0          0          0
  nodereopt        :       0.00       0.00          0          0          0          0          0          0          0          0
  pscost           :       0.00       0.00          0          0          0          0          0          0          0          0
  random           :       0.00       0.00          0          0          0          0          0          0          0          0
  relpscost        :      38.04       0.00      10661          0          0          0       9586          0          0      21120
  vanillafullstrong:       0.00       0.00          0          0          0          0          0          0          0          0
Primal Heuristics  :   ExecTime  SetupTime      Calls      Found       Best
  LP solutions     :       0.00          -          -          4          4
  relax solutions  :       0.00          -          -          0          0
  pseudo solutions :       0.00          -          -          0          0
  strong branching :       0.01          -          -          0          0
  actconsdiving    :       0.00       0.00          0          0          0
  adaptivediving   :       8.46       0.00         24          0          0
  alns             :       0.98       0.00          7          0          0
  bound            :       0.00       0.00          0          0          0
  clique           :       0.00       0.00          0          0          0
  coefdiving       :       0.00       0.00          0          0          0
  completesol      :       0.00       0.00          0          0          0
  conflictdiving   :      52.03       0.00        158          0          0
  crossover        :     175.12       0.00          8          1          1
  dins             :       0.00       0.00          0          0          0
  distributiondivin:      80.14       0.00        157          0          0
  dps              :       0.00       0.00          0          0          0
  dualval          :       0.00       0.00          0          0          0
  farkasdiving     :       0.00       0.00          0          0          0
  feaspump         :      31.38       0.00         44          0          0
  fixandinfer      :       0.00       0.00          0          0          0
  fracdiving       :      35.90       0.00        158          0          0
  gins             :       0.07       0.00          0          0          0
  guideddiving     :      39.55       0.00        157          0          0
  indicator        :       0.07       0.00          0          0          0
  indicatordiving  :       0.00       0.00          0          0          0
  intdiving        :       0.00       0.00          0          0          0
  intshifting      :       3.91       0.00         29          0          0
  linesearchdiving :      45.96       0.00        157          0          0
  localbranching   :       0.00       0.00          0          0          0
  locks            :       0.07       0.00          1          0          0
  lpface           :       0.01       0.00          0          0          0
  mpec             :       1.78       0.00          1          0          0
  multistart       :       0.00       0.00          0          0          0
  mutation         :       0.00       0.00          0          0          0
  nlpdiving        :      10.10       0.00          4          0          0
  objpscostdiving  :      42.35       0.00         23          0          0
  octane           :       0.00       0.00          0          0          0
  ofins            :       0.00       0.00          0          0          0
  oneopt           :       0.00       0.00          7          0          0
  padm             :       0.00       0.00          0          0          0
  proximity        :       0.00       0.00          0          0          0
  pscostdiving     :      42.73       0.00        158          0          0
  randrounding     :       0.82       0.00        845          0          0
  rens             :       0.00       0.00          0          0          0
  reoptsols        :       0.00       0.00          0          0          0
  repair           :       0.00       0.00          0          0          0
  rins             :      82.45       0.00         11          1          1
  rootsoldiving    :      30.92       0.00         66          0          0
  rounding         :       0.52       0.00       2949          0          0
  shiftandpropagate:       0.05       0.00          1          0          0
  shifting         :       0.66       0.00        907          0          0
  simplerounding   :       0.08       0.00          0          0          0
  subnlp           :      10.78       0.00         12          1          1
  trivial          :       0.02       0.00          2          0          0
  trivialnegation  :       0.00       0.00          0          0          0
  trustregion      :       0.00       0.00          0          0          0
  trysol           :       0.08       0.00          0          0          0
  twoopt           :       0.00       0.00          0          0          0
  undercover       :       0.61       0.00          1          0          0
  vbounds          :       0.00       0.00          0          0          0
  veclendiving     :      76.97       0.00        157          0          0
  zeroobj          :       0.00       0.00          0          0          0
  zirounding       :       0.09       0.00       1000          0          0
  other solutions  :          -          -          -          0          -
Diving (single)    :      Calls      Nodes   LP Iters Backtracks  Conflicts   MinDepth   MaxDepth   AvgDepth  RoundSols  NLeafSols  MinSolDpt  MaxSolDpt  AvgSolDpt
  actconsdiving    :          0          -          -          -          -          -          -          -          -          -          -          -          -
  coefdiving       :          0          -          -          -          -          -          -          -          -          -          -          -          -
  conflictdiving   :        158       2282     169495        315          1         23         50       35.5          0          -          -          -          -
  distributiondivin:        157       2752     238798        422          4         22         50       37.8          0          -          -          -          -
  farkasdiving     :          0          -          -          -          -          -          -          -          -          -          -          -          -
  fracdiving       :        158       3697     148525         13          0         36         50       47.3          0          -          -          -          -
  guideddiving     :        157       3768     166636         12          0         34         50       47.0          0          -          -          -          -
  indicatordiving  :          0          -          -          -          -          -          -          -          -          -          -          -          -
  linesearchdiving :        157       3307     184404        122          1         36         50       43.8          0          -          -          -          -
  pscostdiving     :        158       3949     182027          6          0         36         50       47.7          0          -          -          -          -
  veclendiving     :        157       2419     238685        804          0         23         50       32.8          0          -          -          -          -
Diving (adaptive)  :      Calls      Nodes   LP Iters Backtracks  Conflicts   MinDepth   MaxDepth   AvgDepth  RoundSols  NLeafSols  MinSolDpt  MaxSolDpt  AvgSolDpt
  actconsdiving    :          3         45       4262         21          0         29         46       35.3          0          -          -          -          -
  coefdiving       :          3         79       8271         25          0         27         49       36.0          0          -          -          -          -
  conflictdiving   :          0          -          -          -          -          -          -          -          -          -          -          -          -
  distributiondivin:          0          -          -          -          -          -          -          -          -          -          -          -          -
  farkasdiving     :          0          -          -          -          -          -          -          -          -          -          -          -          -
  fracdiving       :          7        140       5351          1          0         37         50       43.4          0          -          -          -          -
  guideddiving     :          3         93       4997          1          0         46         49       47.3          0          -          -          -          -
  indicatordiving  :          0          -          -          -          -          -          -          -          -          -          -          -          -
  linesearchdiving :          2         47       2678          0          0         42         45       43.5          0          -          -          -          -
  pscostdiving     :          5        106       4607          0          0         42         50       48.0          0          -          -          -          -
  veclendiving     :          1          4        288          0          0         32         32       32.0          0          -          -          -          -
Neighborhoods      :      Calls  SetupTime  SolveTime SolveNodes       Sols       Best       Exp3  EpsGreedy        UCB TgtFixRate  Opt  Inf Node Stal  Sol  Usr Othr Actv
  rens             :          1       0.05       0.15          0          0          0    0.00000   -1.00000    0.55929      0.900    0    0    0    0    0    0    1    1
  rins             :          1       0.02       0.06          0          0          0    0.00000   -1.00000    0.55929      0.900    0    0    0    0    0    0    1    1
  mutation         :          1       0.03       0.07          0          0          0    0.00000   -1.00000    0.55929      0.900    0    0    0    0    0    0    1    1
  localbranching   :          1       0.05       0.18          0          0          0    0.00000   -1.00000    0.55929      0.900    0    0    0    0    0    0    1    1
  crossover        :          0       0.00       0.00          0          0          0    0.00000   -1.00000    0.05929      0.900    0    0    0    0    0    0    0    1
  proximity        :          1       0.04       0.15          0          0          0    0.00000   -1.00000    0.55929      0.900    0    0    0    0    0    0    1    1
  zeroobjective    :          1       0.02       0.00          0          0          0    0.00000   -1.00000    0.05929      0.900    0    0    0    0    0    0    1    1
  dins             :          1       0.02       0.07          0          0          0    0.00000   -1.00000    0.55929      0.900    0    0    0    0    0    0    1    1
  trustregion      :          0       0.00       0.00          0          0          0    0.00000   -1.00000    1.00000      0.900    0    0    0    0    0    0    0    0
Expressions        :   #IntEval  IntEvalTi   #RevProp  RevPropTi    DomReds    Cutoffs  #Estimate  EstimTime  Branching  #Simplify SimplifyTi Simplified
  pow              :   34066687       7.64   11601931       3.17   17687146          0     541401       0.20          0       3240       0.00          0
  prod             :   23936780       7.04     101830       0.03       1015          0          0       0.00          0       2002       0.00       1000
  sum              :   32200317       8.06   22378348       6.59    1539024        216        401       0.00          0       3202       0.00        401
  var              :   69010863      14.22          0       0.00          0          0          0       0.00          0       8041       0.00          0
  varidx           :          0       0.00          0       0.00          0          0          0       0.00          0          0       0.00          0
Nonlinear Conshdlr :   WeakSepa  TightenLP DespTghtLP DespBranch DespCutoff    ForceLP  CanonTime
  enforce          :     115357          0          0          0          0          0
  presolve         :                                                                         0.06
Nlhdlrs            :    Detects  DetectAll DetectTime   #IntEval  IntEvalTi   #RevProp  RevPropTi    DomReds    Cutoffs   #Enforce   EnfoTime       Cuts  Branching
  soc              :       1000       1000       0.02          0       0.00          0       0.00          0          0   30234562      51.57     277259          0
  convex           :          1          1       0.00          0       0.00          0       0.00          0          0      42676       0.38      42673          0
  concave          :          0          0       0.00          0       0.00          0       0.00          0          0          0       0.00          0          0
  quotient         :          0          0       0.01          0       0.00          0       0.00          0          0          0       0.00          0          0
  quadratic        :          0          0       0.00          0       0.00          0       0.00          0          0          0       0.00          0          0
  default          :       6693      33465       0.00   90198158      52.64   34090722      63.15   19227185        216     541802       0.95     541001          0
  bilinear         :          0          0       0.00          0       0.00          0       0.00          0          0          0       0.00          0          0
  perspective      :          0          0       0.00          0       0.00          0       0.00          0          0          0       0.00          0          0
LP                 :       Time      Calls Iterations  Iter/call   Iter/sec  Time-0-It Calls-0-It    ItLimit
  primal LP        :     955.74      11457          0       0.00       0.00     955.69      11457
  dual LP          :    1390.59      71853    7054964      99.10    5073.36       0.48        663
  lex dual LP      :       0.00          0          0       0.00          -
  barrier LP       :       0.00          0          0       0.00          -       0.00          0
  resolve instable :       0.00          0          0       0.00          -
  diving/probing LP:     304.15      11730    1693317     144.36    5567.37
  strong branching :      32.31        422     177802     421.33    5503.00          -          -        359
    (at root node) :          -         28       9610     343.21          -
  conflict analysis:       7.95       3827      37499       9.80    4716.86
NLP relaxation     :
  solve time       :      10.05 (7 calls)
  convexity        :  nonconvex (252 linear rows, 401 convex ineq., 1000 nonconvex ineq., 0 nonlinear eq. or two-sided ineq.)
NLP Solvers        :  #Problems  ProblemTi    #Solves  SolveTime      #Iter  Time/Iter      #Okay #TimeLimit #IterLimit #LObjLimit #Interrupt  #NumError #EvalError  #OutOfMem #LicenseEr #OtherTerm   #GlobOpt    #LocOpt  #Feasible #LocInfeas #GlobInfea #Unbounded   #Unknown
  ipopt            :         14      19.76         21      20.83        971       0.02         14          0          7          0          0          0          0          0          0          0          0          3          2          7          0          0          9
B&B Tree           :
  number of runs   :          1
  nodes            :      14647 (10560 internal, 4087 leaves)
  feasible leaves  :          4
  infeas. leaves   :          1
  objective leaves :       4081
  nodes (total)    :      14647 (10560 internal, 4087 leaves)
  nodes left       :       6475
  max depth        :         39
  max depth (total):         39
  backtracks       :       3218 (22.0%)
  early backtracks :          0 (0.0%)
  nodes exc. ref.  :          0 (0.0%)
  delayed cutoffs  :          0
  repropagations   :         13 (0 domain reductions, 0 cutoffs)
  avg switch length:       7.11
  switching time   :     961.24
Estim. Tree Size   :      29292
Estimation Tree    : 21121 nodes (14646 visited, 10560 internal, 4086 leaves, 6475 open), weight: 0.0000 completed 0.2565
Estimations        :      estim      value      trend resolution     smooth
  wbe              :  216017385          -          -          -          -
  tree-profile     :         -1          -          -          -          -
  gap              :      29292    0.74775    0.00000          4      31003
  tree-weight      :      29292    0.00004    0.00000          4      29278
  leaf-frequency   :      77215    0.27895    0.00003          4      77213
  ssg              :     107028    0.59500   -0.00005          4     107315
  open-nodes       :      29292 6475.00000    0.98543          4      29278
Root Node          :
  First LP value   : -9.13259011357244e-01
  First LP Iters   :       8616 (13054.55 Iter/sec)
  First LP Time    :       0.66
  Final Dual Bound : -4.01891044005008e-01
  Final Root Iters :      23848
  Root LP Estimate : -2.38164474283869e-01
Solution           :
  Solutions found  :          7 (7 improvements)
  First Solution   : -2.14876594382174e-01   (in run 1, after 1 nodes, 3.06 seconds, depth 0, found by <feaspump>)
  Gap First Sol.   :     325.02 %
  Gap Last Sol.    :      39.00 %
  Primal Bound     : -2.66605753566126e-01   (in run 1, after 3835 nodes, 1587.60 seconds, depth 32, found by <relaxation>)
  Dual Bound       : -3.56542887289551e-01
  Gap              :      33.73 %
Integrals          :      Total       Avg%
  primal-dual      :  103820.91      28.84
  primal-ref       :          -          - (not evaluated)
  dual-ref         :          -          - (not evaluated)
